User:   dmapa@x031.nifl.fysik.dtu.dk
Date:   Mon Apr 21 18:17:14 2025
Arch:   x86_64
Pid:    320569
CWD:    /home/cat/dmapa/gpaw/dissads/tree/systems/BEEF-Os/compute/relax
Python: 3.11.3
gpaw:   /home/cat/dmapa/bin/venv-asrlib/gpaw/gpaw (55eb60cdf0)
_gpaw:  /home/cat/dmapa/bin/venv-asrlib/gpaw/build/lib.linux-x86_64-broadwell_el8-cpython-311/
        _gpaw.cpython-311-x86_64-linux-gnu.so (55eb60cdf0)
ase:    /home/cat/dmapa/bin/venv-asrlib/ase/ase (version 3.26.0b1-f4168b42a5)
numpy:  /home/modules/software/SciPy-bundle/2023.07-gfbf-2023a/lib/python3.11/site-packages/numpy (version 1.25.1)
scipy:  /home/modules/software/SciPy-bundle/2023.07-gfbf-2023a/lib/python3.11/site-packages/scipy (version 1.11.1)
units:  Angstrom and eV
cores: 24
OpenMP: False
OMP_NUM_THREADS: 1

Input parameters:
  kpts: {size: [8, 8, 8]}
  mixer: {backend: pulay,
          beta: 0.02,
          method: separate,
          nmaxold: 5,
          weight: 50.0}
  mode: {ecut: 500,
         name: pw}
  spinpol: False
  xc: BEEF-vdW

System changes: positions, numbers, cell, pbc, initial_charges, initial_magmoms

Initialize ...

species:
  Os:
    name: Osmium
    id: ae23660e50580265915413f33c5632ec
    Z: 76.0
    valence: 14
    core: 62
    charge: 0.0
    file: /home/modules/software/GPAW-setups/24.11.0/Os.PBE.gz
    compensation charges: {type: gauss,
                           rc: 0.39,
                           lmax: 2}
    cutoffs: {filter: 2.36,
              core: 2.55}
    projectors:
      #              energy  rcut
      - 6s(2.00)    -6.125   1.349
      - 5p(6.00)   -50.878   1.397
      - 6p(0.00)    -1.276   1.397
      - 5d(6.00)    -6.274   1.244
      -  s          21.086   1.349
      -  d          20.938   1.244

    # Using partial waves for Os as LCAO basis

Reference energy: -937847.914077  # eV

Spin-paired calculation

Convergence criteria:
 Maximum [total energy] change in last 3 cyles: 0.0005 eV / valence electron
 Maximum integral of absolute [dens]ity change: 0.0001 electrons / valence electron
 Maximum integral of absolute [eigenst]ate change: 4e-08 eV^2 / valence electron
 Maximum number of scf [iter]ations: 333
 (Square brackets indicate name in SCF output, whereas a 'c' in
 the SCF output indicates the quantity has converged.)

Symmetries present (total): 12

  ( 1  1  0)  ( 1  1  0)  ( 1  0  0)  ( 1  0  0)  ( 0  1  0)  ( 0  1  0)
  ( 0 -1  0)  ( 0 -1  0)  ( 0  1  0)  ( 0  1  0)  (-1 -1  0)  (-1 -1  0)
  ( 0  0  1)  ( 0  0 -1)  ( 0  0  1)  ( 0  0 -1)  ( 0  0  1)  ( 0  0 -1)

  ( 0 -1  0)  ( 0 -1  0)  (-1  0  0)  (-1  0  0)  (-1 -1  0)  (-1 -1  0)
  (-1  0  0)  (-1  0  0)  ( 1  1  0)  ( 1  1  0)  ( 1  0  0)  ( 1  0  0)
  ( 0  0  1)  ( 0  0 -1)  ( 0  0  1)  ( 0  0 -1)  ( 0  0  1)  ( 0  0 -1)
Note: your k-points are not as symmetric as your crystal!

512 k-points: 8 x 8 x 8 Monkhorst-Pack grid
80 k-points in the irreducible part of the Brillouin zone
       k-points in crystal coordinates                weights
   0:     0.06250000   -0.06250000    0.06250000          4/512
   1:     0.06250000   -0.06250000    0.18750000          4/512
   2:     0.06250000   -0.06250000    0.31250000          4/512
   3:     0.06250000   -0.06250000    0.43750000          4/512
   4:     0.06250000    0.06250000    0.06250000          4/512
   5:     0.06250000    0.06250000    0.18750000          4/512
   6:     0.06250000    0.06250000    0.31250000          4/512
   7:     0.06250000    0.06250000    0.43750000          4/512
   8:     0.18750000   -0.18750000    0.06250000          4/512
   9:     0.18750000   -0.18750000    0.18750000          4/512
          ...
  79:     0.43750000    0.43750000    0.43750000          4/512

Wave functions: Plane wave expansion
  Cutoff energy: 500.000 eV
  Number of coefficients (min, max): 619, 634
  Pulay-stress correction: 0.000000 eV/Ang^3 (de/decut=0.000000)
  Using FFTW library
  ScaLapack parameters: grid=1x1, blocksize=None
  Wavefunction extrapolation:
    Improved wavefunction reuse through dual PAW basis

Occupation numbers: Fermi-Dirac:
  width: 0.1000  # eV

Eigensolver
   Davidson(niter=2)

Densities:
  Coarse grid: 14*14*24 grid
  Fine grid: 28*28*48 grid
  Total Charge: 0.000000

Density mixing:
  Method: separate
  Backend: pulay
  Linear mixing parameter: 0.02
  old densities: 5
  Damping of long wavelength oscillations: 50

Hamiltonian:
  XC and Coulomb potentials evaluated on a 28*28*48 grid
  Using the BEEF-vdW Exchange-Correlation functional
  External potential:
    NoExternalPotential

XC parameters: BEEF-vdW with 2 nearest neighbor stencil

Total number of cores used: 24
Parallelization over k-points: 8
Domain decomposition: 1 x 1 x 3

Number of atoms: 2
Number of atomic orbitals: 24
Number of bands in calculation: 21
Number of valence electrons: 28
Bands to converge: occupied

... initialized

Initializing position-dependent things.

Density initialized from atomic densities
Creating initial wave functions:
  21 bands from LCAO basis set

        Os

       Os

Positions:
   0 Os     0.000000    0.000000    0.000000    ( 0.0000,  0.0000,  0.0000)
   1 Os    -0.000000    1.513227    2.069914    ( 0.0000,  0.0000,  0.0000)

Unit cell:
           periodic     x           y           z      points  spacing
  1. axis:    yes    2.620986    0.000000    0.000000    14     0.1621
  2. axis:    yes   -1.310493    2.269841    0.000000    14     0.1621
  3. axis:    yes    0.000000    0.000000    4.139828    24     0.1725

  Lengths:   2.620986   2.620986   4.139828
  Angles:   90.000000  90.000000 120.000000

Effective grid spacing dv^(1/3) = 0.1736

     iter     time        total  log10-change:
                         energy   eigst   dens
iter:   1 18:17:19  -641.159083
iter:   2 18:17:19  -641.195266   -0.56  -1.49
iter:   3 18:17:20  -641.789124   -1.86  -1.47
iter:   4 18:17:20  -640.830062   -1.76  -1.29
iter:   5 18:17:20  -640.901555   -2.30  -1.90
iter:   6 18:17:21  -640.886882   -2.04  -1.97
iter:   7 18:17:21  -640.892319   -2.60  -2.27
iter:   8 18:17:21  -640.896381c  -3.41  -2.58
iter:   9 18:17:22  -640.891572c  -3.66  -2.48
iter:  10 18:17:22  -640.891813c  -4.91  -3.06
iter:  11 18:17:22  -640.892025c  -4.86  -3.16
iter:  12 18:17:22  -640.892204c  -4.93  -3.02
iter:  13 18:17:23  -640.892336c  -4.13  -3.10
iter:  14 18:17:23  -640.892348c  -5.16  -3.51
iter:  15 18:17:23  -640.892323c  -5.61  -3.55
iter:  16 18:17:24  -640.892320c  -5.67  -3.69
iter:  17 18:17:24  -640.892321c  -6.42  -3.91
iter:  18 18:17:24  -640.892309c  -6.57  -4.01c
iter:  19 18:17:25  -640.892309c  -6.78  -4.36c
iter:  20 18:17:25  -640.892309c  -8.09c -4.51c

Converged after 20 iterations.

Dipole moment: (-3.613150, 2.086053, 0.000000) |e|*Ang

Energy contributions relative to reference atoms: (reference = -937847.914077)

Kinetic:       +118.497203
Potential:     -108.827792
External:        +0.000000
XC:            -649.905131
Entropy (-ST):   -0.029701
Local:           -0.641738
SIC:             +0.000000
Free energy:   -640.907160
Extrapolated:  -640.892309

Showing only first 2 kpts
 Kpt  Band  Eigenvalues  Occupancy
  0    12     15.74338    2.00000
  0    13     16.30331    2.00000
  0    14     16.36998    2.00000
  0    15     17.55974    1.99889

  1    12     15.45605    2.00000
  1    13     16.76446    2.00000
  1    14     17.01459    2.00000
  1    15     17.13137    1.99998

Fermi level: 18.30968