User:   dmapa@x161.nifl.fysik.dtu.dk
Date:   Mon Apr 21 18:05:24 2025
Arch:   x86_64
Pid:    434389
CWD:    /home/cat/dmapa/gpaw/dissads/tree/systems/BEEF-Re/compute/relax
Python: 3.11.3
gpaw:   /home/cat/dmapa/bin/venv-asrlib/gpaw/gpaw (55eb60cdf0)
_gpaw:  /home/cat/dmapa/bin/venv-asrlib/gpaw/build/lib.linux-x86_64-broadwell_el8-cpython-311/
        _gpaw.cpython-311-x86_64-linux-gnu.so (55eb60cdf0)
ase:    /home/cat/dmapa/bin/venv-asrlib/ase/ase (version 3.26.0b1-f4168b42a5)
numpy:  /home/modules/software/SciPy-bundle/2023.07-gfbf-2023a/lib/python3.11/site-packages/numpy (version 1.25.1)
scipy:  /home/modules/software/SciPy-bundle/2023.07-gfbf-2023a/lib/python3.11/site-packages/scipy (version 1.11.1)
units:  Angstrom and eV
cores: 24
OpenMP: False
OMP_NUM_THREADS: 1

Input parameters:
  kpts: {size: [8, 8, 8]}
  mixer: {backend: pulay,
          beta: 0.02,
          method: separate,
          nmaxold: 5,
          weight: 50.0}
  mode: {ecut: 500,
         name: pw}
  spinpol: False
  xc: BEEF-vdW

System changes: positions, numbers, cell, pbc, initial_charges, initial_magmoms

Initialize ...

species:
  Re:
    name: Rhenium
    id: e7ff48666be5877df55313211be7dccb
    Z: 75.0
    valence: 13
    core: 62
    charge: 0.0
    file: /home/modules/software/GPAW-setups/24.11.0/Re.PBE.gz
    compensation charges: {type: gauss,
                           rc: 0.42,
                           lmax: 2}
    cutoffs: {filter: 2.40,
              core: 2.76}
    projectors:
      #              energy  rcut
      - 6s(2.00)    -5.924   1.376
      - 5p(6.00)   -47.045   1.376
      - 6p(0.00)    -1.325   1.376
      - 5d(5.00)    -5.383   1.307
      -  s          21.287   1.376
      -  d          21.828   1.307

    # Using partial waves for Re as LCAO basis

Reference energy: -907375.111031  # eV

Spin-paired calculation

Convergence criteria:
 Maximum [total energy] change in last 3 cyles: 0.0005 eV / valence electron
 Maximum integral of absolute [dens]ity change: 0.0001 electrons / valence electron
 Maximum integral of absolute [eigenst]ate change: 4e-08 eV^2 / valence electron
 Maximum number of scf [iter]ations: 333
 (Square brackets indicate name in SCF output, whereas a 'c' in
 the SCF output indicates the quantity has converged.)

Symmetries present (total): 12

  ( 1  1  0)  ( 1  1  0)  ( 1  0  0)  ( 1  0  0)  ( 0  1  0)  ( 0  1  0)
  ( 0 -1  0)  ( 0 -1  0)  ( 0  1  0)  ( 0  1  0)  (-1 -1  0)  (-1 -1  0)
  ( 0  0  1)  ( 0  0 -1)  ( 0  0  1)  ( 0  0 -1)  ( 0  0  1)  ( 0  0 -1)

  ( 0 -1  0)  ( 0 -1  0)  (-1  0  0)  (-1  0  0)  (-1 -1  0)  (-1 -1  0)
  (-1  0  0)  (-1  0  0)  ( 1  1  0)  ( 1  1  0)  ( 1  0  0)  ( 1  0  0)
  ( 0  0  1)  ( 0  0 -1)  ( 0  0  1)  ( 0  0 -1)  ( 0  0  1)  ( 0  0 -1)
Note: your k-points are not as symmetric as your crystal!

512 k-points: 8 x 8 x 8 Monkhorst-Pack grid
80 k-points in the irreducible part of the Brillouin zone
       k-points in crystal coordinates                weights
   0:     0.06250000   -0.06250000    0.06250000          4/512
   1:     0.06250000   -0.06250000    0.18750000          4/512
   2:     0.06250000   -0.06250000    0.31250000          4/512
   3:     0.06250000   -0.06250000    0.43750000          4/512
   4:     0.06250000    0.06250000    0.06250000          4/512
   5:     0.06250000    0.06250000    0.18750000          4/512
   6:     0.06250000    0.06250000    0.31250000          4/512
   7:     0.06250000    0.06250000    0.43750000          4/512
   8:     0.18750000   -0.18750000    0.06250000          4/512
   9:     0.18750000   -0.18750000    0.18750000          4/512
          ...
  79:     0.43750000    0.43750000    0.43750000          4/512

Wave functions: Plane wave expansion
  Cutoff energy: 500.000 eV
  Number of coefficients (min, max): 649, 671
  Pulay-stress correction: 0.000000 eV/Ang^3 (de/decut=0.000000)
  Using FFTW library
  ScaLapack parameters: grid=1x1, blocksize=None
  Wavefunction extrapolation:
    Improved wavefunction reuse through dual PAW basis

Occupation numbers: Fermi-Dirac:
  width: 0.1000  # eV

Eigensolver
   Davidson(niter=2)

Densities:
  Coarse grid: 14*14*24 grid
  Fine grid: 28*28*48 grid
  Total Charge: 0.000000

Density mixing:
  Method: separate
  Backend: pulay
  Linear mixing parameter: 0.02
  old densities: 5
  Damping of long wavelength oscillations: 50

Hamiltonian:
  XC and Coulomb potentials evaluated on a 28*28*48 grid
  Using the BEEF-vdW Exchange-Correlation functional
  External potential:
    NoExternalPotential

XC parameters: BEEF-vdW with 2 nearest neighbor stencil

Total number of cores used: 24
Parallelization over k-points: 8
Domain decomposition: 1 x 1 x 3

Number of atoms: 2
Number of atomic orbitals: 24
Number of bands in calculation: 20
Number of valence electrons: 26
Bands to converge: occupied

... initialized

Initializing position-dependent things.

Density initialized from atomic densities
Creating initial wave functions:
  20 bands from LCAO basis set

        Re

       Re

Positions:
   0 Re     0.000000    0.000000    0.000000    ( 0.0000,  0.0000,  0.0000)
   1 Re    -0.000000    1.528873    2.132991    ( 0.0000,  0.0000,  0.0000)

Unit cell:
           periodic     x           y           z      points  spacing
  1. axis:    yes    2.648086    0.000000    0.000000    14     0.1638
  2. axis:    yes   -1.324043    2.293310    0.000000    14     0.1638
  3. axis:    yes    0.000000    0.000000    4.265982    24     0.1777

  Lengths:   2.648086   2.648086   4.265982
  Angles:   90.000000  90.000000 120.000000

Effective grid spacing dv^(1/3) = 0.1766

     iter     time        total  log10-change:
                         energy   eigst   dens
iter:   1 18:05:28  -628.896114
iter:   2 18:05:29  -628.905979   -1.12  -1.44
iter:   3 18:05:29  -629.657804   -1.82  -1.43
iter:   4 18:05:29  -629.470516   -0.50  -1.21
iter:   5 18:05:30  -629.773102   -1.69  -1.31
iter:   6 18:05:30  -628.584256   -1.05  -1.24
iter:   7 18:05:30  -628.561172   -2.34  -1.89
iter:   8 18:05:31  -628.551175   -3.05  -2.09
iter:   9 18:05:31  -628.550485c  -4.12  -2.31
iter:  10 18:05:31  -628.551754c  -3.52  -2.39
iter:  11 18:05:32  -628.550536c  -4.08  -2.62
iter:  12 18:05:32  -628.549691c  -3.71  -2.72
iter:  13 18:05:32  -628.549647c  -4.84  -3.17
iter:  14 18:05:33  -628.549576c  -5.02  -3.36
iter:  15 18:05:33  -628.549546c  -5.82  -3.57
iter:  16 18:05:33  -628.549522c  -5.52  -3.63
iter:  17 18:05:34  -628.549521c  -6.16  -3.63
iter:  18 18:05:34  -628.549523c  -6.87  -3.70
iter:  19 18:05:34  -628.549523c  -8.61c -3.72
iter:  20 18:05:34  -628.549528c  -7.03  -3.73
iter:  21 18:05:35  -628.549527c  -5.80  -3.77
iter:  22 18:05:35  -628.549543c  -5.76  -3.66
iter:  23 18:05:35  -628.549542c  -6.55  -3.92
iter:  24 18:05:36  -628.549541c  -6.95  -3.93
iter:  25 18:05:36  -628.549547c  -6.83  -3.93
iter:  26 18:05:36  -628.549545c  -7.19  -4.07c
iter:  27 18:05:37  -628.549545c  -7.52c -4.10c

Converged after 27 iterations.

Dipole moment: (-3.550610, 2.049946, -0.000000) |e|*Ang

Energy contributions relative to reference atoms: (reference = -907375.111031)

Kinetic:       +109.784789
Potential:     -102.480250
External:        +0.000000
XC:            -635.952877
Entropy (-ST):   -0.044251
Local:           +0.120919
SIC:             +0.000000
Free energy:   -628.571670
Extrapolated:  -628.549545

Showing only first 2 kpts
 Kpt  Band  Eigenvalues  Occupancy
  0    11     15.39240    1.99998
  0    12     15.72005    1.99944
  0    13     16.41204    1.55794
  0    14     16.59212    0.73585

  1    11     14.92974    2.00000
  1    12     15.44977    1.99996
  1    13     16.23150    1.91086
  1    14     17.19249    0.00287

Fermi level: 16.53801