User:   dmapa@x161.nifl.fysik.dtu.dk
Date:   Mon Apr 21 17:37:40 2025
Arch:   x86_64
Pid:    434389
CWD:    /home/cat/dmapa/gpaw/dissads/tree/systems/BEEF-Fe/compute/relax
Python: 3.11.3
gpaw:   /home/cat/dmapa/bin/venv-asrlib/gpaw/gpaw (55eb60cdf0)
_gpaw:  /home/cat/dmapa/bin/venv-asrlib/gpaw/build/lib.linux-x86_64-broadwell_el8-cpython-311/
        _gpaw.cpython-311-x86_64-linux-gnu.so (55eb60cdf0)
ase:    /home/cat/dmapa/bin/venv-asrlib/ase/ase (version 3.26.0b1-f4168b42a5)
numpy:  /home/modules/software/SciPy-bundle/2023.07-gfbf-2023a/lib/python3.11/site-packages/numpy (version 1.25.1)
scipy:  /home/modules/software/SciPy-bundle/2023.07-gfbf-2023a/lib/python3.11/site-packages/scipy (version 1.11.1)
units:  Angstrom and eV
cores: 24
OpenMP: False
OMP_NUM_THREADS: 1

Input parameters:
  kpts: {size: [8, 8, 8]}
  mixer: {backend: pulay,
          beta: 0.02,
          method: fullspin,
          nmaxold: 5,
          weight: 50.0}
  mode: {ecut: 500,
         name: pw}
  spinpol: True
  xc: BEEF-vdW

System changes: positions, numbers, cell, pbc, initial_charges, initial_magmoms

Initialize ...

species:
  Fe:
    name: Iron
    id: 37abbd8d6c3c35915a9b583b742da910
    Z: 26.0
    valence: 8
    core: 18
    charge: 0.0
    file: /home/modules/software/GPAW-setups/24.11.0/Fe.PBE.gz
    compensation charges: {type: gauss,
                           rc: 0.33,
                           lmax: 2}
    cutoffs: {filter: 2.06,
              core: 2.67}
    projectors:
      #              energy  rcut
      - 4s(2.00)    -5.291   1.164
      - 4p(0.00)    -1.326   1.058
      - 3d(6.00)    -7.505   1.058
      -  s          21.920   1.164
      -  p          25.885   1.058
      -  d          19.706   1.058

    # Using partial waves for Fe as LCAO basis

Reference energy: -34619.454600  # eV

Spin-polarized calculation.
Magnetic moment: 2.300000

Convergence criteria:
 Maximum [total energy] change in last 3 cyles: 0.0005 eV / valence electron
 Maximum integral of absolute [dens]ity change: 0.0001 electrons / valence electron
 Maximum integral of absolute [eigenst]ate change: 4e-08 eV^2 / valence electron
 Maximum number of scf [iter]ations: 333
 (Square brackets indicate name in SCF output, whereas a 'c' in
 the SCF output indicates the quantity has converged.)

Symmetries present (total): 48

  ( 1  1  1)  ( 1  1  1)  ( 1  1  1)  ( 1  1  1)  ( 1  1  1)  ( 1  1  1)
  ( 0  0 -1)  ( 0  0 -1)  ( 0 -1  0)  ( 0 -1  0)  (-1  0  0)  (-1  0  0)
  ( 0 -1  0)  (-1  0  0)  ( 0  0 -1)  (-1  0  0)  ( 0  0 -1)  ( 0 -1  0)

[...]

  ( 0 -1  0)  ( 0 -1  0)  ( 0 -1  0)  ( 0 -1  0)  ( 0 -1  0)  ( 0 -1  0)
  ( 1  1  1)  ( 1  1  1)  ( 0  0 -1)  ( 0  0 -1)  (-1  0  0)  (-1  0  0)
  ( 0  0 -1)  (-1  0  0)  ( 1  1  1)  (-1  0  0)  ( 1  1  1)  ( 0  0 -1)

  (-1  0  0)  (-1  0  0)  (-1  0  0)  (-1  0  0)  (-1  0  0)  (-1  0  0)
  ( 1  1  1)  ( 1  1  1)  ( 0  0 -1)  ( 0  0 -1)  ( 0 -1  0)  ( 0 -1  0)
  ( 0  0 -1)  ( 0 -1  0)  ( 1  1  1)  ( 0 -1  0)  ( 1  1  1)  ( 0  0 -1)

  (-1 -1 -1)  (-1 -1 -1)  (-1 -1 -1)  (-1 -1 -1)  (-1 -1 -1)  (-1 -1 -1)
  ( 1  0  0)  ( 1  0  0)  ( 0  1  0)  ( 0  1  0)  ( 0  0  1)  ( 0  0  1)
  ( 0  1  0)  ( 0  0  1)  ( 1  0  0)  ( 0  0  1)  ( 1  0  0)  ( 0  1  0)

512 k-points: 8 x 8 x 8 Monkhorst-Pack grid
26 k-points in the irreducible part of the Brillouin zone
       k-points in crystal coordinates                weights
   0:     0.06250000    0.06250000   -0.06250000          6/512
   1:     0.18750000   -0.06250000   -0.06250000          8/512
   2:     0.18750000    0.06250000   -0.06250000         24/512
   3:     0.18750000    0.18750000   -0.18750000          6/512
   4:     0.31250000   -0.06250000   -0.06250000         24/512
   5:     0.31250000    0.06250000   -0.18750000         24/512
   6:     0.31250000    0.06250000   -0.06250000         24/512
   7:     0.31250000    0.18750000   -0.18750000         24/512
   8:     0.31250000    0.31250000   -0.31250000          6/512
   9:     0.31250000    0.31250000    0.18750000         12/512
          ...
  25:     0.43750000    0.43750000    0.43750000          8/512

Wave functions: Plane wave expansion
  Cutoff energy: 500.000 eV
  Number of coefficients (min, max): 245, 266
  Pulay-stress correction: 0.000000 eV/Ang^3 (de/decut=0.000000)
  Using FFTW library
  ScaLapack parameters: grid=1x1, blocksize=None
  Wavefunction extrapolation:
    Improved wavefunction reuse through dual PAW basis

Occupation numbers: Fermi-Dirac:
  width: 0.1000  # eV

Eigensolver
   Davidson(niter=2)

Densities:
  Coarse grid: 14*14*14 grid
  Fine grid: 28*28*28 grid
  Total Charge: 0.000000

Density mixing:
  Method: fullspin
  Backend: pulay
  Linear mixing parameter: 0.02
  old densities: 5
  Damping of long wavelength oscillations: 50

Hamiltonian:
  XC and Coulomb potentials evaluated on a 28*28*28 grid
  Using the BEEF-vdW Exchange-Correlation functional
  External potential:
    NoExternalPotential

XC parameters: BEEF-vdW with 2 nearest neighbor stencil

Total number of cores used: 24
Parallelization over k-points: 3
Domain decomposition: 2 x 2 x 2

Number of atoms: 1
Number of atomic orbitals: 9
Number of bands in calculation: 9
Number of valence electrons: 8
Bands to converge: occupied

... initialized

Initializing position-dependent things.

Density initialized from atomic densities
Creating initial wave functions:
  9 bands from LCAO basis set

       Fe

Positions:
   0 Fe     0.000000    0.000000    0.000000    ( 0.0000,  0.0000,  2.3000)

Unit cell:
           periodic     x           y           z      points  spacing
  1. axis:    yes   -1.362503    1.362503    1.362503    14     0.1376
  2. axis:    yes    1.362503   -1.362503    1.362503    14     0.1376
  3. axis:    yes    1.362503    1.362503   -1.362503    14     0.1376

  Lengths:   2.359924   2.359924   2.359924
  Angles:  109.471221 109.471221 109.471221

Effective grid spacing dv^(1/3) = 0.1545

     iter     time        total  log10-change:  magmom
                         energy   eigst   dens
iter:   1 17:37:45   -69.969970                   +2.3041
iter:   2 17:37:45   -69.990151   -1.24  -1.31    +2.2998
iter:   3 17:37:45   -69.888657   -1.99  -1.31    +2.3378
iter:   4 17:37:46   -70.238434   -1.29  -1.26    +1.9631
iter:   5 17:37:46   -70.228102   -3.01  -1.38    +1.9781
iter:   6 17:37:46   -70.249782   -2.79  -1.41    +2.0403
iter:   7 17:37:47   -70.094494   -1.94  -1.44    +2.0715
iter:   8 17:37:47   -70.093560   -3.63  -2.30    +2.0593
iter:   9 17:37:47   -70.096485c  -3.89  -2.32    +2.0646
iter:  10 17:37:48   -70.095402c  -3.65  -2.32    +2.0624
iter:  11 17:37:48   -70.095307c  -4.42  -2.95    +2.0590
iter:  12 17:37:48   -70.095345c  -4.98  -3.16    +2.0571
iter:  13 17:37:49   -70.095383c  -5.33  -3.21    +2.0574
iter:  14 17:37:49   -70.095457c  -5.40  -3.35    +2.0592
iter:  15 17:37:49   -70.095459c  -6.41  -3.99    +2.0594
iter:  16 17:37:50   -70.095462c  -6.65  -4.03c   +2.0597
iter:  17 17:37:50   -70.095465c  -6.64  -4.03c   +2.0600
iter:  18 17:37:50   -70.095460c  -7.01  -3.92    +2.0595
iter:  19 17:37:51   -70.095470c  -6.58  -4.07c   +2.0597
iter:  20 17:37:51   -70.095458c  -6.61  -3.88    +2.0596
iter:  21 17:37:51   -70.095461c  -6.98  -4.04c   +2.0600
iter:  22 17:37:52   -70.095459c  -7.88c -4.04c   +2.0598

Converged after 22 iterations.

Dipole moment: (-0.000000, 0.000000, 0.000000) |e|*Ang

Total magnetic moment: (0.000000, 0.000000, 2.059772)
Local magnetic moments:
   0 Fe ( 0.000000,  0.000000,  2.116599)

Energy contributions relative to reference atoms: (reference = -34619.454600)

Kinetic:        +29.238852
Potential:      -25.096272
External:        +0.000000
XC:             -74.353071
Entropy (-ST):   -0.026596
Local:           +0.128330
SIC:             +0.000000
Free energy:    -70.108757
Extrapolated:   -70.095459

Spin contamination: 0.061936 electrons
Showing only first 2 kpts
                      Up                     Down
 Kpt  Band  Eigenvalues  Occupancy  Eigenvalues  Occupancy
  0     2      9.01710    1.00000     10.86918    0.99964
  0     3      9.12006    1.00000     10.99513    0.99873
  0     4     10.28493    1.00000     12.96153    0.00000
  0     5     10.52911    0.99999     13.27440    0.00000

  1     2      8.77122    1.00000     10.58481    0.99998
  1     3      9.72240    1.00000     11.63642    0.56236
  1     4     10.37906    1.00000     13.06800    0.00000
  1     5     10.37906    1.00000     13.06800    0.00000

Fermi level: 11.66150