User:   dmapa@x148.nifl.fysik.dtu.dk
Date:   Mon Apr 21 17:56:04 2025
Arch:   x86_64
Pid:    401667
CWD:    /home/cat/dmapa/gpaw/dissads/tree/systems/BEEF-Ru/compute/relax
Python: 3.11.3
gpaw:   /home/cat/dmapa/bin/venv-asrlib/gpaw/gpaw (55eb60cdf0)
_gpaw:  /home/cat/dmapa/bin/venv-asrlib/gpaw/build/lib.linux-x86_64-broadwell_el8-cpython-311/
        _gpaw.cpython-311-x86_64-linux-gnu.so (55eb60cdf0)
ase:    /home/cat/dmapa/bin/venv-asrlib/ase/ase (version 3.26.0b1-f4168b42a5)
numpy:  /home/modules/software/SciPy-bundle/2023.07-gfbf-2023a/lib/python3.11/site-packages/numpy (version 1.25.1)
scipy:  /home/modules/software/SciPy-bundle/2023.07-gfbf-2023a/lib/python3.11/site-packages/scipy (version 1.11.1)
units:  Angstrom and eV
cores: 24
OpenMP: False
OMP_NUM_THREADS: 1

Input parameters:
  kpts: {size: [8, 8, 8]}
  mixer: {backend: pulay,
          beta: 0.02,
          method: separate,
          nmaxold: 5,
          weight: 50.0}
  mode: {ecut: 500,
         name: pw}
  spinpol: False
  xc: BEEF-vdW

System changes: positions, numbers, cell, pbc, initial_charges, initial_magmoms

Initialize ...

species:
  Ru:
    name: Ruthenium
    id: 670232e5f51aeb2542f664849653fb2d
    Z: 44.0
    valence: 16
    core: 28
    charge: 0.0
    file: /home/modules/software/GPAW-setups/24.11.0/Ru.PBE.gz
    compensation charges: {type: gauss,
                           rc: 0.39,
                           lmax: 2}
    cutoffs: {filter: 2.16,
              core: 1.30}
    projectors:
      #              energy  rcut
      - 4s(2.00)   -76.316   1.281
      - 5s(1.00)    -4.236   1.281
      - 4p(6.00)   -46.423   1.286
      - 5p(0.00)    -0.913   1.286
      - 4d(7.00)    -5.203   1.254
      -  d          22.008   1.254

    # Using partial waves for Ru as LCAO basis

Reference energy: -246490.249966  # eV

Spin-paired calculation

Convergence criteria:
 Maximum [total energy] change in last 3 cyles: 0.0005 eV / valence electron
 Maximum integral of absolute [dens]ity change: 0.0001 electrons / valence electron
 Maximum integral of absolute [eigenst]ate change: 4e-08 eV^2 / valence electron
 Maximum number of scf [iter]ations: 333
 (Square brackets indicate name in SCF output, whereas a 'c' in
 the SCF output indicates the quantity has converged.)

Symmetries present (total): 12

  ( 1  1  0)  ( 1  1  0)  ( 1  0  0)  ( 1  0  0)  ( 0  1  0)  ( 0  1  0)
  ( 0 -1  0)  ( 0 -1  0)  ( 0  1  0)  ( 0  1  0)  (-1 -1  0)  (-1 -1  0)
  ( 0  0  1)  ( 0  0 -1)  ( 0  0  1)  ( 0  0 -1)  ( 0  0  1)  ( 0  0 -1)

  ( 0 -1  0)  ( 0 -1  0)  (-1  0  0)  (-1  0  0)  (-1 -1  0)  (-1 -1  0)
  (-1  0  0)  (-1  0  0)  ( 1  1  0)  ( 1  1  0)  ( 1  0  0)  ( 1  0  0)
  ( 0  0  1)  ( 0  0 -1)  ( 0  0  1)  ( 0  0 -1)  ( 0  0  1)  ( 0  0 -1)
Note: your k-points are not as symmetric as your crystal!

512 k-points: 8 x 8 x 8 Monkhorst-Pack grid
80 k-points in the irreducible part of the Brillouin zone
       k-points in crystal coordinates                weights
   0:     0.06250000   -0.06250000    0.06250000          4/512
   1:     0.06250000   -0.06250000    0.18750000          4/512
   2:     0.06250000   -0.06250000    0.31250000          4/512
   3:     0.06250000   -0.06250000    0.43750000          4/512
   4:     0.06250000    0.06250000    0.06250000          4/512
   5:     0.06250000    0.06250000    0.18750000          4/512
   6:     0.06250000    0.06250000    0.31250000          4/512
   7:     0.06250000    0.06250000    0.43750000          4/512
   8:     0.18750000   -0.18750000    0.06250000          4/512
   9:     0.18750000   -0.18750000    0.18750000          4/512
          ...
  79:     0.43750000    0.43750000    0.43750000          4/512

Wave functions: Plane wave expansion
  Cutoff energy: 500.000 eV
  Number of coefficients (min, max): 595, 618
  Pulay-stress correction: 0.000000 eV/Ang^3 (de/decut=0.000000)
  Using FFTW library
  ScaLapack parameters: grid=1x1, blocksize=None
  Wavefunction extrapolation:
    Improved wavefunction reuse through dual PAW basis

Occupation numbers: Fermi-Dirac:
  width: 0.1000  # eV

Eigensolver
   Davidson(niter=2)

Densities:
  Coarse grid: 14*14*24 grid
  Fine grid: 28*28*48 grid
  Total Charge: 0.000000

Density mixing:
  Method: separate
  Backend: pulay
  Linear mixing parameter: 0.02
  old densities: 5
  Damping of long wavelength oscillations: 50

Hamiltonian:
  XC and Coulomb potentials evaluated on a 28*28*48 grid
  Using the BEEF-vdW Exchange-Correlation functional
  External potential:
    NoExternalPotential

XC parameters: BEEF-vdW with 2 nearest neighbor stencil

Total number of cores used: 24
Parallelization over k-points: 8
Domain decomposition: 1 x 1 x 3

Number of atoms: 2
Number of atomic orbitals: 26
Number of bands in calculation: 24
Number of valence electrons: 32
Bands to converge: occupied

... initialized

Initializing position-dependent things.

Density initialized from atomic densities
Creating initial wave functions:
  24 bands from LCAO basis set

        Ru

       Ru

Positions:
   0 Ru     0.000000    0.000000    0.000000    ( 0.0000,  0.0000,  0.0000)
   1 Ru     0.000000    1.498034    2.047956    ( 0.0000,  0.0000,  0.0000)

Unit cell:
           periodic     x           y           z      points  spacing
  1. axis:    yes    2.594671    0.000000    0.000000    14     0.1605
  2. axis:    yes   -1.297336    2.247051    0.000000    14     0.1605
  3. axis:    yes    0.000000    0.000000    4.095911    24     0.1707

  Lengths:   2.594671   2.594671   4.095911
  Angles:   90.000000  90.000000 120.000000

Effective grid spacing dv^(1/3) = 0.1719

     iter     time        total  log10-change:
                         energy   eigst   dens
iter:   1 17:56:09  -281.396715
iter:   2 17:56:10  -281.339062   -1.65  -1.41
iter:   3 17:56:10  -280.624228   -1.25  -1.42
iter:   4 17:56:10  -280.471235   -3.27  -1.72
iter:   5 17:56:11  -280.316320   -2.46  -1.83
iter:   6 17:56:11  -280.293420   -2.85  -2.25
iter:   7 17:56:11  -280.293516   -5.49  -3.23
iter:   8 17:56:12  -280.293719c  -4.62  -3.19
iter:   9 17:56:12  -280.293691c  -6.40  -3.63
iter:  10 17:56:12  -280.293644c  -6.29  -3.77
iter:  11 17:56:12  -280.293638c  -7.41c -4.15c

Converged after 11 iterations.

Dipole moment: (-3.104039, 1.792118, -0.000000) |e|*Ang

Energy contributions relative to reference atoms: (reference = -246490.249966)

Kinetic:        +74.147963
Potential:      -71.921581
External:        +0.000000
XC:            -281.949477
Entropy (-ST):   -0.048047
Local:           -0.546519
SIC:             +0.000000
Free energy:   -280.317661
Extrapolated:  -280.293638

Showing only first 2 kpts
 Kpt  Band  Eigenvalues  Occupancy
  0    14     13.40433    2.00000
  0    15     13.84771    2.00000
  0    16     13.88420    2.00000
  0    17     15.67778    0.82785

  1    14     13.17105    2.00000
  1    15     14.41123    1.99999
  1    16     14.42365    1.99999
  1    17     15.29769    1.93865

Fermi level: 15.64300